
Gurobi 9.0.1 (linux64, Python) logging started Mon Nov  9 17:00:57 2020

Using license file /home/jtorde/gurobi.lic
Set parameter LogFile to value gurobi.log
Academic license - for non-commercial use only
